benchmarks_vrp/CMT11/fixed_c_size/CMT11_1.vrp
NAME: CMT11_1
TYPE: CVRP
COMMENT: 1042.11 - Cluster Nr.1
DIMENSION: 15
CAPACITY: 200
EDGE_WEIGHT_TYPE: EUC_2D
NODE_COORD_TYPE: TWOD_COORDS
NODE_COORD_SECTION: 
11 50 88
10 44 86
12 46 87
7 10 45
1 35 87
2 35 85
4 46 89
14 54 90
3 50 80
9 46 83
6 50 85
13 48 83
15 46 89
5 37 83
8 54 86
DEPOT_SECTION: 
7
-1
DEMAND_SECTION: 
10 7
4 35
3 13
6 28
9 9
15 13
11 7
14 10
8 3
1 16
2 14
13 5
5 17
12 11
7 0
EOF
