benchmarks_vrp/CMT11/fixed_c_size/CMT11_1.tour
NAME: CMT11_1 solution
TYPE: TOUR
TOUR_SECTION:
7 2 1 5 10 12 4 15 11 14 8 6 3 13 9 -1
-1
EOF